Maximize
	- 2 x2 - 2 x3 + 3 x4 
Maximize
	- 3 x1 + 6 x2 + 4 x4 + 5 x5 
Maximize
	+ 5 x1 + 6 x3 - 2 x4 - 1 x5 
Subject To
	+ 3 x1 + 4 x2 + 5 x3 + 3 x4 + 6 x5 <= 6
	- 3 x3 - 1 x5 <= 3
	- 3 x2 + 6 x3 + 3 x4 + 2 x5 <= 9
Bounds
	0 <= x1 <= 4
	0 <= x2 <= 4
	0 <= x3 <= 4
	0 <= x4 <= 4
	0 <= x5 <= 4
Integers
	x1 x2 x3 x4 x5 
End